(set-logic QF_S)
(declare-fun var0 () String)
(assert (str.in.re var0 (re.++ (re.+ (re.* (re.union (re.+ (str.to.re "000")) (re.+ (str.to.re "111"))))) (re.union (re.* (re.union (re.union (str.to.re "22") (str.to.re "333")) (re.union (str.to.re "44") (str.to.re "5")))) (re.* (re.* (re.+ (str.to.re "666"))))))))
(assert (<= 15 (str.len var0)))
(check-sat)